%SETS
JOBS     = 1..10;
MACHINES = 1..5;
SPEED    = 5;

time        = array3d(JOBS,MACHINES,1..SPEED,[2, 1, 1, 1, 1, 5, 1, 1, 1, 1, 10, 3, 2, 2, 1, 13, 4, 3, 2, 2, 20, 6, 4, 4, 3, 14, 4, 3, 2, 2, 29, 10, 7, 6, 5, 5, 2, 1, 1, 1, 54, 18, 13, 11, 9, 1, 1, 1, 1, 1, 28, 9, 7, 5, 5, 13, 4, 3, 2, 2, 21, 7, 5, 4, 3, 3, 1, 1, 1, 1, 5, 1, 1, 1, 1, 41, 14, 10, 8, 7, 89, 30, 21, 18, 16, 9, 3, 2, 1, 1, 30, 10, 7, 6, 5, 54, 18, 13, 11, 9, 58, 20, 14, 11, 10, 2, 1, 1, 1, 1, 1, 1, 1, 1, 1, 4, 1, 1, 1, 1, 54, 18, 13, 11, 9, 2, 1, 1, 1, 1, 14, 4, 3, 2, 2, 81, 28, 20, 16, 14, 19, 6, 4, 4, 3, 30, 10, 7, 6, 5, 9, 3, 2, 1, 1, 30, 10, 7, 6, 5, 46, 16, 11, 9, 8, 1, 1, 1, 1, 1, 35, 12, 8, 7, 6, 116, 40, 28, 23, 20, 35, 12, 8, 7, 6, 8, 2, 2, 1, 1, 40, 13, 9, 8, 7, 2, 1, 1, 1, 1, 15, 5, 3, 3, 2, 61, 21, 15, 12, 11, 8, 3, 2, 1, 1, 8, 3, 2, 1, 1, 3, 1, 1, 1, 1, 1, 1, 1, 1, 1, 29, 10, 7, 5, 5, 6, 2, 1, 1, 1, 7, 2, 1, 1, 1, 17, 6, 4, 3, 3]);
energy      = array3d(JOBS,MACHINES,1..SPEED,[98, 99, 99, 99, 99, 95, 99, 99, 99, 99, 90, 97, 98, 98, 99, 87, 96, 97, 98, 98, 81, 94, 96, 96, 97, 86, 96, 97, 98, 98, 74, 90, 93, 94, 95, 95, 98, 99, 99, 99, 58, 83, 87, 89, 91, 99, 99, 99, 99, 99, 75, 91, 93, 95, 95, 87, 96, 97, 98, 98, 81, 93, 95, 96, 97, 97, 99, 99, 99, 99, 95, 99, 99, 99, 99, 66, 86, 90, 92, 93, 41, 74, 81, 83, 85, 91, 97, 98, 99, 99, 74, 90, 93, 94, 95, 58, 83, 87, 89, 91, 55, 81, 86, 89, 90, 98, 99, 99, 99, 99, 99, 99, 99, 99, 99, 96, 99, 99, 99, 99, 58, 83, 87, 89, 91, 98, 99, 99, 99, 99, 86, 96, 97, 98, 98, 44, 75, 81, 85, 86, 82, 94, 96, 96, 97, 74, 90, 93, 94, 95, 91, 97, 98, 99, 99, 74, 90, 93, 94, 95, 63, 85, 89, 91, 92, 99, 99, 99, 99, 99, 70, 88, 92, 93, 94, 31, 67, 75, 79, 81, 70, 88, 92, 93, 94, 92, 98, 98, 99, 99, 67, 87, 91, 92, 93, 98, 99, 99, 99, 99, 86, 95, 97, 97, 98, 54, 81, 86, 88, 89, 92, 97, 98, 99, 99, 92, 97, 98, 99, 99, 97, 99, 99, 99, 99, 99, 99, 99, 99, 99, 74, 90, 93, 95, 95, 94, 98, 99, 99, 99, 93, 98, 99, 99, 99, 84, 94, 96, 97, 97]);
precedence  = array2d(JOBS,MACHINES,[2, 4, 1, 0, 3, 1, 2, 0, 4, 3, 3, 4, 1, 2, 0, 3, 0, 1, 2, 4, 1, 0, 2, 3, 4, 2, 4, 3, 1, 0, 4, 2, 0, 3, 1, 3, 1, 2, 0, 4, 2, 3, 0, 1, 4, 4, 1, 2, 0, 3]);
releaseDate = [70, 90, 70, 30, 100, 0, 80, 70, 70, 10];
dueDate     = [85, 106, 87, 89, 136, 61, 136, 130, 93, 35];